p cnf 50 58
15 0
-14 13 44 -28 0
48 0
27 0
34 29 0
18 -26 0
33 -39 -33 0
2 37 46 -46 -11 0
-16 43 0
-5 -49 0
31 0
16 21 0
-24 -36 0
-19 -1 0
-47 12 29 0
11 36 21 -18 0
-40 25 0
-30 14 0
4 46 -17 47 -9 0
-15 -45 -49 0
4 7 8 47 -47 0
41 -30 -44 37 0
9 0
39 7 0
-28 5 -24 -22 27 0
3 -36 0
-45 0
-19 0
-21 -5 -25 0
4 -23 12 -6 -34 0
35 -5 0
-47 3 -12 0
21 0
-40 29 -50 -25 0
-28 36 0
2 14 -48 -13 -40 0
2 8 -46 20 -34 0
24 -15 36 0
-23 -29 5 22 0
17 49 19 -35 -33 0
-31 12 41 0
38 15 0
-2 0
41 0
8 -38 37 30 0
-45 0
9 12 -20 -18 0
-27 0
42 0
-40 15 0
-29 0
10 -43 -18 47 0
7 0
5 29 0
40 0
-10 0
-40 0
-46 -43 14 -25 0
